Maximize

mat_0_0 + mat_0_1 + mat_0_2 + mat_0_3 + mat_1_0 + mat_1_1 + mat_1_2 + mat_1_3 + mat_2_0 + mat_2_1 + mat_2_2 + mat_2_3 + mat_3_0 + mat_3_1 + mat_3_2 + mat_3_3 + mat_4_0 + mat_4_1 + mat_4_2 + mat_4_3 + mat_5_0 + mat_5_1 + mat_5_2 + mat_5_3 + mat_6_0 + mat_6_1 + mat_6_2 + mat_6_3 + mat_7_0 + mat_7_1 + mat_7_2 + mat_7_3 + mat_8_0 + mat_8_1 + mat_8_2 + mat_8_3


Subject To

a0: 30 mat_0_0 + 20 mat_1_0 + 15 mat_2_0 + 10 mat_3_0 + 35 mat_4_0 + 25 mat_5_0 + 12 mat_6_0 + 28 mat_7_0 + 15 mat_8_0 - 60 <= 0
a1: 30 mat_0_1 + 20 mat_1_1 + 15 mat_2_1 + 10 mat_3_1 + 35 mat_4_1 + 25 mat_5_1 + 12 mat_6_1 + 28 mat_7_1 + 15 mat_8_1 - 40 <= 0
a2: 30 mat_0_2 + 20 mat_1_2 + 15 mat_2_2 + 10 mat_3_2 + 35 mat_4_2 + 25 mat_5_2 + 12 mat_6_2 + 28 mat_7_2 + 15 mat_8_2 - 30 <= 0
a3: 30 mat_0_3 + 20 mat_1_3 + 15 mat_2_3 + 10 mat_3_3 + 35 mat_4_3 + 25 mat_5_3 + 12 mat_6_3 + 28 mat_7_3 + 15 mat_8_3 - 50 <= 0
b0: mat_0_0 + mat_0_1 + mat_0_2 + mat_0_3 <= 1
b1: mat_1_0 + mat_1_1 + mat_1_2 + mat_1_3 <= 1
b2: mat_2_0 + mat_2_1 + mat_2_2 + mat_2_3 <= 1
b3: mat_3_0 + mat_3_1 + mat_3_2 + mat_3_3 <= 1
b4: mat_4_0 + mat_4_1 + mat_4_2 + mat_4_3 <= 1
b5: mat_5_0 + mat_5_1 + mat_5_2 + mat_5_3 <= 1
b6: mat_6_0 + mat_6_1 + mat_6_2 + mat_6_3 <= 1
b7: mat_7_0 + mat_7_1 + mat_7_2 + mat_7_3 <= 1
b8: mat_8_0 + mat_8_1 + mat_8_2 + mat_8_3 <= 1
c0: mat_0_0 + mat_1_0 <= 1
c1: mat_0_1 + mat_1_1 <= 1
c2: mat_0_2 + mat_1_2 <= 1
c3: mat_0_3 + mat_1_3 <= 1
c4: mat_0_0 + mat_2_0 <= 1
c5: mat_0_1 + mat_2_1 <= 1
c6: mat_0_2 + mat_2_2 <= 1
c7: mat_0_3 + mat_2_3 <= 1
c8: mat_0_0 + mat_3_0 <= 1
c9: mat_0_1 + mat_3_1 <= 1
c10: mat_0_2 + mat_3_2 <= 1
c11: mat_0_3 + mat_3_3 <= 1
c12: mat_0_0 + mat_4_0 <= 1
c13: mat_0_1 + mat_4_1 <= 1
c14: mat_0_2 + mat_4_2 <= 1
c15: mat_0_3 + mat_4_3 <= 1
c16: mat_0_0 + mat_6_0 <= 1
c17: mat_0_1 + mat_6_1 <= 1
c18: mat_0_2 + mat_6_2 <= 1
c19: mat_0_3 + mat_6_3 <= 1
c20: mat_1_0 + mat_0_0 <= 1
c21: mat_1_1 + mat_0_1 <= 1
c22: mat_1_2 + mat_0_2 <= 1
c23: mat_1_3 + mat_0_3 <= 1
c24: mat_1_0 + mat_2_0 <= 1
c25: mat_1_1 + mat_2_1 <= 1
c26: mat_1_2 + mat_2_2 <= 1
c27: mat_1_3 + mat_2_3 <= 1
c28: mat_1_0 + mat_4_0 <= 1
c29: mat_1_1 + mat_4_1 <= 1
c30: mat_1_2 + mat_4_2 <= 1
c31: mat_1_3 + mat_4_3 <= 1
c32: mat_1_0 + mat_5_0 <= 1
c33: mat_1_1 + mat_5_1 <= 1
c34: mat_1_2 + mat_5_2 <= 1
c35: mat_1_3 + mat_5_3 <= 1
c36: mat_1_0 + mat_6_0 <= 1
c37: mat_1_1 + mat_6_1 <= 1
c38: mat_1_2 + mat_6_2 <= 1
c39: mat_1_3 + mat_6_3 <= 1
c40: mat_1_0 + mat_7_0 <= 1
c41: mat_1_1 + mat_7_1 <= 1
c42: mat_1_2 + mat_7_2 <= 1
c43: mat_1_3 + mat_7_3 <= 1
c44: mat_1_0 + mat_8_0 <= 1
c45: mat_1_1 + mat_8_1 <= 1
c46: mat_1_2 + mat_8_2 <= 1
c47: mat_1_3 + mat_8_3 <= 1
c48: mat_2_0 + mat_0_0 <= 1
c49: mat_2_1 + mat_0_1 <= 1
c50: mat_2_2 + mat_0_2 <= 1
c51: mat_2_3 + mat_0_3 <= 1
c52: mat_2_0 + mat_1_0 <= 1
c53: mat_2_1 + mat_1_1 <= 1
c54: mat_2_2 + mat_1_2 <= 1
c55: mat_2_3 + mat_1_3 <= 1
c56: mat_2_0 + mat_3_0 <= 1
c57: mat_2_1 + mat_3_1 <= 1
c58: mat_2_2 + mat_3_2 <= 1
c59: mat_2_3 + mat_3_3 <= 1
c60: mat_2_0 + mat_5_0 <= 1
c61: mat_2_1 + mat_5_1 <= 1
c62: mat_2_2 + mat_5_2 <= 1
c63: mat_2_3 + mat_5_3 <= 1
c64: mat_2_0 + mat_6_0 <= 1
c65: mat_2_1 + mat_6_1 <= 1
c66: mat_2_2 + mat_6_2 <= 1
c67: mat_2_3 + mat_6_3 <= 1
c68: mat_2_0 + mat_7_0 <= 1
c69: mat_2_1 + mat_7_1 <= 1
c70: mat_2_2 + mat_7_2 <= 1
c71: mat_2_3 + mat_7_3 <= 1
c72: mat_2_0 + mat_8_0 <= 1
c73: mat_2_1 + mat_8_1 <= 1
c74: mat_2_2 + mat_8_2 <= 1
c75: mat_2_3 + mat_8_3 <= 1
c76: mat_3_0 + mat_0_0 <= 1
c77: mat_3_1 + mat_0_1 <= 1
c78: mat_3_2 + mat_0_2 <= 1
c79: mat_3_3 + mat_0_3 <= 1
c80: mat_3_0 + mat_2_0 <= 1
c81: mat_3_1 + mat_2_1 <= 1
c82: mat_3_2 + mat_2_2 <= 1
c83: mat_3_3 + mat_2_3 <= 1
c84: mat_3_0 + mat_4_0 <= 1
c85: mat_3_1 + mat_4_1 <= 1
c86: mat_3_2 + mat_4_2 <= 1
c87: mat_3_3 + mat_4_3 <= 1
c88: mat_3_0 + mat_5_0 <= 1
c89: mat_3_1 + mat_5_1 <= 1
c90: mat_3_2 + mat_5_2 <= 1
c91: mat_3_3 + mat_5_3 <= 1
c92: mat_3_0 + mat_6_0 <= 1
c93: mat_3_1 + mat_6_1 <= 1
c94: mat_3_2 + mat_6_2 <= 1
c95: mat_3_3 + mat_6_3 <= 1
c96: mat_3_0 + mat_7_0 <= 1
c97: mat_3_1 + mat_7_1 <= 1
c98: mat_3_2 + mat_7_2 <= 1
c99: mat_3_3 + mat_7_3 <= 1
c100: mat_4_0 + mat_0_0 <= 1
c101: mat_4_1 + mat_0_1 <= 1
c102: mat_4_2 + mat_0_2 <= 1
c103: mat_4_3 + mat_0_3 <= 1
c104: mat_4_0 + mat_1_0 <= 1
c105: mat_4_1 + mat_1_1 <= 1
c106: mat_4_2 + mat_1_2 <= 1
c107: mat_4_3 + mat_1_3 <= 1
c108: mat_4_0 + mat_3_0 <= 1
c109: mat_4_1 + mat_3_1 <= 1
c110: mat_4_2 + mat_3_2 <= 1
c111: mat_4_3 + mat_3_3 <= 1
c112: mat_4_0 + mat_6_0 <= 1
c113: mat_4_1 + mat_6_1 <= 1
c114: mat_4_2 + mat_6_2 <= 1
c115: mat_4_3 + mat_6_3 <= 1
c116: mat_4_0 + mat_8_0 <= 1
c117: mat_4_1 + mat_8_1 <= 1
c118: mat_4_2 + mat_8_2 <= 1
c119: mat_4_3 + mat_8_3 <= 1
c120: mat_5_0 + mat_1_0 <= 1
c121: mat_5_1 + mat_1_1 <= 1
c122: mat_5_2 + mat_1_2 <= 1
c123: mat_5_3 + mat_1_3 <= 1
c124: mat_5_0 + mat_2_0 <= 1
c125: mat_5_1 + mat_2_1 <= 1
c126: mat_5_2 + mat_2_2 <= 1
c127: mat_5_3 + mat_2_3 <= 1
c128: mat_5_0 + mat_3_0 <= 1
c129: mat_5_1 + mat_3_1 <= 1
c130: mat_5_2 + mat_3_2 <= 1
c131: mat_5_3 + mat_3_3 <= 1
c132: mat_5_0 + mat_6_0 <= 1
c133: mat_5_1 + mat_6_1 <= 1
c134: mat_5_2 + mat_6_2 <= 1
c135: mat_5_3 + mat_6_3 <= 1
c136: mat_5_0 + mat_8_0 <= 1
c137: mat_5_1 + mat_8_1 <= 1
c138: mat_5_2 + mat_8_2 <= 1
c139: mat_5_3 + mat_8_3 <= 1
c140: mat_6_0 + mat_0_0 <= 1
c141: mat_6_1 + mat_0_1 <= 1
c142: mat_6_2 + mat_0_2 <= 1
c143: mat_6_3 + mat_0_3 <= 1
c144: mat_6_0 + mat_1_0 <= 1
c145: mat_6_1 + mat_1_1 <= 1
c146: mat_6_2 + mat_1_2 <= 1
c147: mat_6_3 + mat_1_3 <= 1
c148: mat_6_0 + mat_2_0 <= 1
c149: mat_6_1 + mat_2_1 <= 1
c150: mat_6_2 + mat_2_2 <= 1
c151: mat_6_3 + mat_2_3 <= 1
c152: mat_6_0 + mat_3_0 <= 1
c153: mat_6_1 + mat_3_1 <= 1
c154: mat_6_2 + mat_3_2 <= 1
c155: mat_6_3 + mat_3_3 <= 1
c156: mat_6_0 + mat_4_0 <= 1
c157: mat_6_1 + mat_4_1 <= 1
c158: mat_6_2 + mat_4_2 <= 1
c159: mat_6_3 + mat_4_3 <= 1
c160: mat_6_0 + mat_5_0 <= 1
c161: mat_6_1 + mat_5_1 <= 1
c162: mat_6_2 + mat_5_2 <= 1
c163: mat_6_3 + mat_5_3 <= 1
c164: mat_6_0 + mat_7_0 <= 1
c165: mat_6_1 + mat_7_1 <= 1
c166: mat_6_2 + mat_7_2 <= 1
c167: mat_6_3 + mat_7_3 <= 1
c168: mat_6_0 + mat_8_0 <= 1
c169: mat_6_1 + mat_8_1 <= 1
c170: mat_6_2 + mat_8_2 <= 1
c171: mat_6_3 + mat_8_3 <= 1
c172: mat_7_0 + mat_1_0 <= 1
c173: mat_7_1 + mat_1_1 <= 1
c174: mat_7_2 + mat_1_2 <= 1
c175: mat_7_3 + mat_1_3 <= 1
c176: mat_7_0 + mat_2_0 <= 1
c177: mat_7_1 + mat_2_1 <= 1
c178: mat_7_2 + mat_2_2 <= 1
c179: mat_7_3 + mat_2_3 <= 1
c180: mat_7_0 + mat_3_0 <= 1
c181: mat_7_1 + mat_3_1 <= 1
c182: mat_7_2 + mat_3_2 <= 1
c183: mat_7_3 + mat_3_3 <= 1
c184: mat_7_0 + mat_6_0 <= 1
c185: mat_7_1 + mat_6_1 <= 1
c186: mat_7_2 + mat_6_2 <= 1
c187: mat_7_3 + mat_6_3 <= 1
c188: mat_7_0 + mat_8_0 <= 1
c189: mat_7_1 + mat_8_1 <= 1
c190: mat_7_2 + mat_8_2 <= 1
c191: mat_7_3 + mat_8_3 <= 1
c192: mat_8_0 + mat_1_0 <= 1
c193: mat_8_1 + mat_1_1 <= 1
c194: mat_8_2 + mat_1_2 <= 1
c195: mat_8_3 + mat_1_3 <= 1
c196: mat_8_0 + mat_2_0 <= 1
c197: mat_8_1 + mat_2_1 <= 1
c198: mat_8_2 + mat_2_2 <= 1
c199: mat_8_3 + mat_2_3 <= 1
c200: mat_8_0 + mat_4_0 <= 1
c201: mat_8_1 + mat_4_1 <= 1
c202: mat_8_2 + mat_4_2 <= 1
c203: mat_8_3 + mat_4_3 <= 1
c204: mat_8_0 + mat_5_0 <= 1
c205: mat_8_1 + mat_5_1 <= 1
c206: mat_8_2 + mat_5_2 <= 1
c207: mat_8_3 + mat_5_3 <= 1
c208: mat_8_0 + mat_7_0 <= 1
c209: mat_8_1 + mat_7_1 <= 1
c210: mat_8_2 + mat_7_2 <= 1
c211: mat_8_3 + mat_7_3 <= 1




Binary

mat_0_0 mat_0_1 mat_0_2 mat_0_3 mat_1_0 mat_1_1 mat_1_2 mat_1_3 mat_2_0 mat_2_1 mat_2_2 mat_2_3 mat_3_0 mat_3_1 mat_3_2 mat_3_3 mat_4_0 mat_4_1 mat_4_2 mat_4_3 mat_5_0 mat_5_1 mat_5_2 mat_5_3 mat_6_0 mat_6_1 mat_6_2 mat_6_3 mat_7_0 mat_7_1 mat_7_2 mat_7_3 mat_8_0 mat_8_1 mat_8_2 mat_8_3

 


End
